22	3

7	10	10	

0	0	0	0	3	2	3	4	
2	3	5	2	2	5	7	
2	5	4	3	3	6	7	8	
2	5	2	2	2	5	7	
5	4	1	4	2	9	10	
4	5	5	4	2	11	12	
1	3	5	2	2	11	12	
2	2	4	4	2	9	10	
3	3	2	2	2	14	16	
2	3	2	4	1	13	
2	3	3	2	1	13	
3	4	1	4	1	15	
8	1	4	4	1	17	
6	2	2	2	1	17	
1	5	5	4	2	17	19	
5	1	5	4	1	18	
1	4	5	4	1	20	
3	3	2	3	1	21	
2	5	3	3	1	21	
1	2	4	6	1	22	
2	1	6	2	1	22	
0	0	0	0	0	
